Route #1: 105 19 188 57 63 66 171 13 120 168 110 163 128 4 34 103 108 129 156 133 72 139 149 45 99 131
Route #2: 172 127 44 88 165 1 184 160 182 83 29 37
Route #3: 106 119 49 26 117 175 11 122 82 116 60 79 17 155 7 162 33 107 113 23 158 121 75 93 51 170 16
Route #4: 118 14 67 166 157 173 132 134 161 74 111 164 69 178 21 50 94 144 115 145 81 92 46
Route #5: 102 68 179 62 59 96 3 15 27 187 124 140 189 154 53 20 65 114 9 91 55 135 31
Route #6: 10 159 142 104 89 35 6 2 38 36 39 30 150 147 80 85 138 28 58 43 73
Route #7: 112 169 78 22 77 137 151 174 48 54 126 181 41 152 87 186 146 71 52 101 47 5 176 125 86 12 24 97 143 95
Route #8: 109 130 56 8 100 42 90 76 40 32 61 180 153 84 18 185 70 141 98 148 177 123 167 136 183 25 64
Cost 16984.000000